CMD:
./solvers/bin/cadical --plain --no-reduce -t 1600 ./data/cnfs//zipcpu-busdelay-p30/zipcpu-busdelay-p30.46.cnf

c --- [ banner ] -------------------------------------------------------------
c 
c CaDiCaL SAT Solver
c Copyright (c) 2016-2024
c A. Biere, M. Fleury, N. Froleyks, K. Fazekas, F. Pollitt, T. Faller
c JKU Linz, University of Freiburg, TU Wien
c 
c Version 2.1.3 5296d3d2a9bf48c154ab2acb5e44625776d821bf
c g++ (Gentoo 12.3.1_p20230526 p2) 12.3.1 20230526 -Wall -Wextra -O3 -DNDEBUG
c Sat Aug 9 07:26:21 PDT 2025 Linux cedar2.int.cedar.computecanada.ca 5.14.0-362.24.2.el9_3.x86_64 x86_64
c 
c --- [ limit ] --------------------------------------------------------------
c 
c setting time limit to 1600 seconds real time (due to '-t 1600')
c 
c --- [ parsing input ] ------------------------------------------------------
c 
c reading DIMACS file from './data/cnfs//zipcpu-busdelay-p30/zipcpu-busdelay-p30.46.cnf'
c opening file to read './data/cnfs//zipcpu-busdelay-p30/zipcpu-busdelay-p30.46.cnf'
c found 'p cnf 142773 417322' header
c parsed 417322 clauses in 0.08 seconds process time
c 
c --- [ options ] ------------------------------------------------------------
c 
c   --compact=false                (different from default 'true')
c   --decompose=false              (different from default 'true')
c   --deduplicate=false            (different from default 'true')
c   --elim=false                   (different from default 'true')
c   --probe=false                  (different from default 'true')
c   --reduce=false                 (different from default 'true')
c   --subsume=false                (different from default 'true')
c   --ternary=false                (different from default 'true')
c   --transred=false               (different from default 'true')
c   --vivify=false                 (different from default 'true')
c 
c --- [ solving ] ------------------------------------------------------------
c 
c time measured in process time since initialization
c 
c  seconds  reductions  redundant  irredundant
c         MB    restarts       trail       variables
c          level   conflicts       glue          remaining
c 
c *  0.08 67  0 0   0    0    0  0% 0 405718 136510 96%
c {  0.11 69  0 0   0    0    0  0% 0 405718 136510 96%
c i  0.13 70 91 0   4   94   88 16% 3 405718 136488 96%
c i  0.13 70 84 0   9  109  100 15% 3 405718 136478 96%
c i  0.13 70 84 0  11  119  109 15% 3 405718 136466 96%
c i  0.17 70 50 0  57  512  475 12% 3 405718 136455 96%
c i  0.20 70 48 0 117  812  750 12% 4 405718 136454 96%
c i  0.21 70 48 0 128  867  798 11% 4 405718 136447 96%
c i  0.21 70 47 0 130  874  804 11% 4 405718 136438 96%
c }  0.22 70 50 0 139 1001  919 12% 4 405718 136427 96%
c [  0.22 70  0 0 139 1001  919  0% 0 405718 136427 96%
c O  0.25 70 3189 0 139 1002  920 91% 5 405718 136427 96%
c i  0.28 71 2851 0 139 1476 1357 82% 9 405718 136426 96%
c i  0.33 71 2794 0 140 2047 1900 80% 9 405718 136304 95%
c i  0.36 71 2625 0 140 2215 2033 76% 8 405718 136303 95%
c i  0.38 71 2389 0 140 2421 2174 70% 8 405718 136280 95%
c i  0.38 71 2383 0 140 2425 2177 70% 8 405718 136274 95%
c ]  0.44 71 1708 0 140 3001 2710 53% 8 405718 136273 95%
c {  0.44 71 50 0 140 3001 2710 12% 4 405718 136273 95%
c F  0.44 71 50 0 142 3006 2715 12% 4 405718 136273 95%
c 
c  seconds  reductions  redundant  irredundant
c         MB    restarts       trail       variables
c          level   conflicts       glue          remaining
c 
c i  0.44 71 50 0 143 3011 2718 12% 4 405718 136180 95%
c i  0.45 71 48 0 148 3063 2747 12% 4 405718 136162 95%
c i  0.48 71 48 0 201 3304 2972 12% 4 405718 136154 95%
c i  0.48 71 48 0 201 3305 2972 12% 4 405718 136145 95%
c i  0.48 71 48 0 201 3306 2972 12% 4 405718 136137 95%
c i  0.49 71 48 0 205 3324 2988 12% 4 405718 136127 95%
c i  0.49 71 48 0 205 3326 2989 12% 4 405718 136117 95%
c i  0.49 71 48 0 205 3328 2990 12% 4 405718 136107 95%
c i  0.51 71 48 0 220 3433 3083 12% 4 405718 136055 95%
c i  0.58 71 47 0 286 3902 3516 12% 4 405718 136054 95%
c i  0.65 71 46 0 339 4360 3898 12% 5 405718 136051 95%
c #  0.86 72 45 0 539 6008 5446 13% 5 405718 136051 95%
c }  1.01 72 45 0 731 7004 6375 12% 5 405718 136051 95%
c [  1.01 72 1708 0 731 7004 6375 53% 8 405718 136051 95%
c i  1.04 72 1454 0 732 7354 6599 46% 7 405718 135999 95%
c I  1.24 72 716 0 733 10009 9034 31% 8 405718 135999 95%
c i  1.59 73 423 0 736 13966 12678 25% 12 405718 135989 95%
c ]  1.70 74 385 0 736 15004 13598 24% 13 405718 135989 95%
c {  1.70 74 45 0 736 15004 13598 12% 5 405718 135989 95%
c B  1.70 74 45 0 738 15010 13604 12% 5 405718 135989 95%
c 
c  seconds  reductions    redundant  irredundant
c         MB    restarts         trail       variables
c          level    conflicts        glue          remaining
c 
c i  1.72 74 45 0 763 15202 13785 12% 5 405718 135988 95%
c i  1.81 74 45 0 854 15612 14166 13% 5 405718 135939 95%
c i  1.89 74 44 0 928 16069 14595 13% 5 405718 135931 95%
c i  1.91 74 45 0 937 16152 14673 13% 5 405718 135930 95%
... skipped 11 lines ...
c W  6.42 97 171 0 3507 45015 39320 16% 13 392541 135786 95%
c O  7.54 97 147 0 3509 55018 48636 18% 13 392541 135786 95%
c ]  8.28 97 126 0 3515 63006 55986 17% 14 392541 135786 95%
c {  8.28 97 40 0 3515 63006 55986 12% 7 392541 135786 95%
c i  8.46 97 40 0 3655 63742 56615 12% 7 392541 135734 95%
c 
c  seconds  reductions     redundant  irredundant
c         MB    restarts          trail       variables
c          level     conflicts        glue          remaining
c 
c i  8.58 97 39 0 3745 64307 57146 12% 7 392541 135682 95%
c B  9.05 97 39 0 4112 66021 58750 12% 7 392541 135682 95%
c i 10.03 97 39 0 4796 69882 62305 12% 7 392541 135681 95%
c i 10.04 97 39 0 4796 70015 62429 12% 7 392541 135679 95%
c i 10.04 97 39 0 4796 70016 62429 12% 7 392541 135674 95%
c W 12.08 101 37 0 6041 78024 67477 12% 8 392068 135674 95%
c i 12.83 101 36 0 6411 82246 70894 12% 8 392068 135622 95%
c # 15.17 101 35 0 7639 91027 79138 12% 8 392068 135622 95%
c B 18.81 101 34 0 9435 105028 92257 12% 8 392068 135622 95%
c W 22.94 105 32 0 11706 120029 104854 11% 9 391845 135622 95%
c i 22.99 105 32 0 11759 120243 105042 11% 9 391845 135621 95%
c } 24.37 105 31 0 12378 127006 111167 11% 9 391845 135621 95%
c [ 24.37 105 126 0 12378 127006 111167 17% 14 391845 135621 95%
c B 25.48 105 107 0 12383 136031 119472 16% 14 391845 135621 95%
c W 27.65 110 80 0 12387 153035 134844 14% 14 391842 135621 95%
c I 29.99 110 63 0 12390 171036 149896 13% 13 391842 135621 95%
c B 32.98 112 52 0 12401 190042 166119 12% 13 391842 135621 95%
c i 34.51 112 48 0 12402 198189 172300 12% 13 391842 135394 95%
c i 35.25 112 46 0 12405 203617 176271 12% 12 391842 135357 95%
c i 35.33 112 45 0 12405 204011 176607 12% 12 391842 135131 95%
c 
c  seconds   reductions       redundant    irredundant
c          MB     restarts            trail        variables
c           level      conflicts          glue           remaining
c 
c W 36.51 107 44 0 12409 210043 111207 12% 12 389655 135098 95%
c i 38.09 107 40 0 12415 220250 118874 12% 12 389655 134894 94%
c i 38.32 107 40 0 12415 221873 120191 12% 12 389655 134892 94%
c i 38.43 107 39 0 12416 222696 120779 11% 12 389655 134713 94%
c i 39.51 107 37 0 12417 230831 128177 12% 11 389655 134290 94%
c i 39.54 107 37 0 12417 231003 128276 12% 11 389655 133521 94%
c O 39.55 107 37 0 12417 231047 128301 12% 11 389655 133521 94%
c i 39.55 107 37 0 12417 231061 128305 12% 11 389655 133425 93%
c i 39.55 107 37 0 12417 231074 128310 12% 11 389655 133417 93%
c ] 39.56 107 37 0 12417 231106 128323 12% 11 389655 128676 90%
c 0 39.56 107 37 0 12417 231106 128323 12% 11 389655 128676 90%
c 
c --- [ result ] -------------------------------------------------------------
c 
s UNSATISFIABLE
c 
c --- [ run-time profiling ] -------------------------------------------------
c 
c process time taken by individual solving procedures
c (percentage relative to process time for solving)
c 
c        39.48  100.00% search
c        19.65   49.78% unstable
c        19.12   48.43% stable
c         0.68    1.72% walk
c         0.08    0.20% parse
c         0.03    0.07% lucky
c         0.00    0.00% simplify
c   =================================
c        39.48   99.80% solve
c 
c last line shows process time for solving
c (percentage relative to total process time)
c 
c --- [ statistics ] ---------------------------------------------------------
c 
c chronological:             51371        22.23 %  of conflicts
c conflicts:                231106      5853.53    per second
c decisions:                717985     18185.37    per second
c fixed:                     14005         9.81 %  of all variables
c learned:                  226117        97.84 %  per conflict
c learned_lits:           11566382       100.00 %  learned literals
c minimized:                     0         0.00 %  learned literals
c shrunken:                2562169        22.15 %  learned literals
c minishrunken:            2827352        24.44 %  learned literals
c otfs:                        772         0.33 %  of conflict
c propagations:          401295279        10.16 M  per second
c rephased:                     21     11005.05    interval
c restarts:                  12417        18.61    interval
c stabilizing:                   4        63.21 %  of conflicts
c subsumed:                  21472         3.40 %  of all clauses
c strengthened:                758         0.12 %  of all clauses
c walked:                        6     38517.67    interval
c 
c seconds are measured in process time for solving
c 
c --- [ resources ] ----------------------------------------------------------
c 
c total process time since initialization:        39.56    seconds
c total real time since initialization:           39.78    seconds
c maximum resident set size of process:          135.50    MB
c 
c --- [ shutting down ] ------------------------------------------------------
c 
c exit 20
